<number of tasks>
250

<cycle time>
1000

<order strength>
0.597


<task times>
1 342
2 693
3 468
4 341
5 426
6 570
7 720
8 624
9 402
10 550
11 644
12 535
13 427
14 510
15 682
16 367
17 468
18 577
19 520
20 575
21 311
22 578
23 388
24 649
25 626
26 568
27 632
28 524
29 563
30 679
31 348
32 525
33 552
34 295
35 782
36 368
37 258
38 495
39 723
40 211
41 542
42 502
43 528
44 412
45 558
46 356
47 429
48 687
49 291
50 675
51 534
52 266
53 499
54 463
55 227
56 370
57 504
58 607
59 606
60 501
61 679
62 526
63 373
64 386
65 565
66 279
67 595
68 429
69 409
70 352
71 562
72 346
73 711
74 503
75 544
76 374
77 271
78 311
79 582
80 413
81 624
82 631
83 678
84 538
85 461
86 578
87 511
88 547
89 570
90 563
91 434
92 272
93 306
94 706
95 478
96 485
97 518
98 326
99 343
100 522
101 389
102 385
103 571
104 588
105 482
106 576
107 384
108 292
109 430
110 580
111 642
112 502
113 481
114 631
115 404
116 520
117 544
118 462
119 639
120 350
121 441
122 655
123 342
124 371
125 639
126 808
127 450
128 421
129 458
130 700
131 559
132 219
133 412
134 263
135 428
136 473
137 676
138 519
139 428
140 626
141 409
142 436
143 622
144 645
145 461
146 360
147 447
148 430
149 571
150 446
151 289
152 454
153 526
154 525
155 442
156 498
157 436
158 319
159 219
160 543
161 639
162 500
163 319
164 498
165 594
166 737
167 627
168 476
169 556
170 636
171 382
172 386
173 461
174 498
175 771
176 465
177 540
178 456
179 585
180 436
181 615
182 415
183 723
184 328
185 519
186 442
187 489
188 547
189 808
190 552
191 578
192 505
193 307
194 615
195 524
196 590
197 633
198 504
199 364
200 440
201 487
202 517
203 420
204 431
205 354
206 434
207 597
208 491
209 425
210 559
211 500
212 614
213 411
214 532
215 455
216 665
217 569
218 479
219 365
220 575
221 409
222 513
223 512
224 647
225 449
226 524
227 614
228 616
229 442
230 505
231 203
232 462
233 505
234 441
235 536
236 349
237 448
238 547
239 410
240 552
241 729
242 598
243 629
244 377
245 517
246 583
247 386
248 656
249 553
250 412

<precedence relations>
1,216
2,216
3,88
4,101
5,64
6,64
7,10
7,12
7,50
7,53
7,62
8,9
8,10
8,11
8,13
8,14
9,88
10,88
11,101
12,64
13,64
14,15
14,16
14,17
14,18
14,19
14,20
14,21
14,22
15,68
16,68
17,140
18,88
19,101
20,64
21,64
22,23
22,24
22,25
22,26
22,27
22,28
23,216
24,242
25,242
26,242
27,33
28,29
28,30
28,31
28,32
28,33
28,34
28,35
28,36
29,216
30,216
31,68
32,88
33,101
34,64
35,64
36,37
36,38
36,39
36,40
36,41
36,42
36,43
36,44
36,45
36,46
37,216
38,68
39,173
40,173
41,140
42,88
43,64
44,214
45,47
45,48
45,49
45,54
45,55
45,56
45,57
46,50
46,51
46,52
46,53
47,216
48,68
49,68
50,88
51,101
52,64
53,64
54,195
55,61
55,62
55,70
55,136
56,58
56,59
56,60
56,63
57,65
57,66
57,67
58,216
59,68
60,242
61,242
62,140
63,88
64,68
64,70
64,72
64,73
64,74
64,75
64,76
64,77
65,195
66,68
66,71
66,78
67,69
67,88
67,89
67,118
68,79
68,80
68,81
68,82
68,83
68,84
68,85
68,86
68,87
68,88
69,173
70,126
71,88
72,91
72,117
72,118
72,119
73,91
73,129
74,89
74,95
74,106
74,116
75,89
75,103
75,128
76,184
77,88
77,90
78,91
78,112
78,129
78,138
79,101
80,101
81,120
81,124
82,92
82,93
82,136
82,141
83,94
83,105
84,104
84,115
84,116
84,136
84,138
85,115
86,121
86,166
86,172
87,113
87,121
87,127
88,96
88,97
88,98
88,99
88,100
89,92
89,112
89,129
89,138
90,112
91,92
91,95
91,102
92,242
93,140
94,140
95,140
96,104
96,187
97,104
97,112
97,114
98,140
99,103
99,119
100,106
100,112
101,104
101,105
101,107
101,108
101,109
101,110
101,111
101,117
102,106
103,173
104,242
105,140
106,140
107,113
107,118
107,130
108,116
108,120
108,129
108,162
109,128
109,162
110,115
110,119
111,114
112,117
112,126
113,173
114,126
115,126
116,139
117,184
118,121
118,168
118,186
119,120
119,121
119,122
119,123
119,124
120,242
121,242
122,126
123,214
124,125
124,127
124,128
124,129
124,130
125,173
126,131
126,132
126,133
126,134
126,135
126,137
127,139
128,139
129,136
130,131
130,137
130,138
131,242
132,140
133,141
134,172
135,161
136,139
137,139
138,139
139,142
139,143
139,144
139,145
139,146
139,147
139,158
140,148
140,149
140,150
140,151
140,152
140,153
140,154
140,155
140,156
140,157
141,158
141,160
142,168
144,170
145,197
145,214
146,161
148,174
148,176
150,162
150,173
150,175
150,176
151,159
153,159
153,164
154,160
154,163
154,187
154,188
154,197
156,167
157,159
157,174
158,159
158,170
159,173
160,242
161,163
161,164
163,214
164,165
164,166
164,167
164,168
165,216
166,173
167,170
167,171
167,196
168,169
168,172
169,173
170,209
171,174
171,176
172,175
173,177
173,178
173,179
173,180
173,181
173,182
174,184
175,184
176,183
177,188
177,217
178,214
179,196
179,217
180,184
180,185
181,184
181,187
182,184
183,184
183,186
183,187
184,189
184,190
184,191
184,192
184,193
184,194
184,195
185,195
186,195
187,189
187,195
187,198
188,196
189,242
190,199
190,213
191,242
192,198
192,209
193,197
193,199
193,227
195,200
195,201
195,202
195,203
195,204
195,205
195,206
195,207
195,208
196,198
196,209
197,216
198,242
199,214
200,211
202,212
202,213
202,215
203,215
203,216
207,210
208,211
208,217
210,216
211,242
212,242
213,242
214,218
214,219
214,220
214,221
214,222
214,223
214,224
214,225
214,226
215,217
215,227
215,228
216,229
216,230
216,231
216,232
216,233
216,234
216,235
216,236
216,237
216,238
216,239
216,240
216,241
216,250
217,242
218,242
220,243
226,248
233,248
240,249
242,244
242,245
242,246
242,247
242,249
245,250

<end>
